%nproc=2
%mem=256MB
%RWF=bm3.rwf
%chk=bm3.chk
%NoSave
#SP PBE1PBE/Def2TZVP geom=connectivity

Structure: 53

  0  1
  H     0.000000   0.000000   0.000000
  C     1.093000   0.000000   0.000000
  C     1.655000   1.421000  -0.000000
  H     1.410000  -0.560000  -0.885000
  H     1.424000  -0.557000   0.880000
  H     1.308000   1.969000  -0.883000
  Si     3.513000   1.515000   0.035000
  H     1.282000   1.975000   0.868000
  O     4.115000   0.884000  -1.070000
  O     3.968000   0.824000   1.454000
  H     4.029000   2.906000  -0.040000
  H     3.876000  -0.027000  -1.244000
  C     5.301000   0.766000   1.905000
  H     5.308000   0.322000   2.902000
  H     5.747000   1.766000   1.967000
  H     5.921000   0.153000   1.244000

1 2 1.0 
2 4 1.0 5 1.0 3 1.0 
3 6 1.0 8 1.0 7 1.0 
4 
5 
6 
7 11 1.0 9 1.0 10 1.0 
8 
9 12 1.0 
10 13 1.0 
11 
12 
13 14 1.0 15 1.0 16 1.0 
14 
15 
16

