%nproc=8
%mem=256MB
%chk=dm2_scan_a
%NoSave
#P PBE1PBE/Def2TZVP NoSymm scan

example of rigid PES scan

0 1
O  
Si  1 B1
O   2 B2 1 A2
C   3 B3 2 A3 1 D3
C   1 B4 2 A4 3 D4
H   2 B5 1 A5 3 D5
H   2 B6 1 A6 3 D6
H   5 B7 1 A7 2 D7
H   5 B8 1 A8 2 D8
H   5 B9 1 A9 2 D9
H   4 B10 3 A10 2 D10
H   4 B11 3 A11 2 D11
H   4 B12 3 A12 2 D12
Variables:
B1        1.63483
B2        1.63483
A2      115.15661
B3        1.40676
A3      125.48102
D3      280.24667
B4        1.40761
A4      125.47666
D4       79.72762 180 1.0
B5        1.47458
A5      105.87683
D5      116.60260
B6        1.49266
A6      107.83823
D6      239.55884
B7        1.09130
A7      108.69423
D7      150.53633
B8        1.09695
A8      111.86506
D8       30.95527
B9        1.09483
A9      110.79191
D9      269.56191
B10        1.09247
A10      108.64520
D10      209.44964
B11        1.09493
A11      110.86280
D11       90.52873
B12        1.09692
A12      111.94380
D12      329.04871


